n_machines = 2;
n_resources = 4;
n_jobs = 80;
horizon = 410;
LB = 205;
n_jobs_per_resource = [20, 20, 20, 20];
duration = [4, 2, 8, 2, 8, 7, 6, 2, 1, 1, 7, 3, 5, 3, 2, 7, 4, 7, 3, 6, 4, 8, 1, 3, 7, 9, 7, 1, 2, 7, 8, 2, 8, 7, 6, 3, 4, 9, 8, 6, 9, 7, 6, 4, 4, 6, 2, 6, 4, 8, 6, 9, 3, 6, 1, 7, 7, 9, 7, 9, 4, 3, 9, 3, 4, 6, 4, 4, 8, 4, 7, 6, 1, 3, 5, 3, 1, 5, 6, 6]